; benchmark generated from python API
(set-info :status unknown)
(declare-datatypes ((RealState 0)) (((RMk1 (rval1 Real)) (RMk2 (rval2 Real)))))
 (declare-fun x1 () Real)
(assert
 (exists ((?y1_st RealState) (val!116 Real) )(let (($x7255 (forall ((?y2 Real) )(! (forall ((?y3 Real) )(! (forall ((?y4 Real) )(! (let ((?x6631 (+ (+ (+ (* 96.0 ?y4) (* 20.0 ?y3)) (* 11.0 ?y2)) (* (- 60.0) x1))))
 (let (($x9128 (> ?x6631 36.0)))
 (let (($x1948 (and $x9128 (>= (+ (* 97.0 (rval2 ?y1_st)) (* (- 67.0) x1)) 61.0))))
 (let ((?x66 (- 78.0)))
 (let ((?x5276 (* (- 35.0) x1)))
 (let ((?x2212 (+ (+ (* (- 13.0) ?y4) (* 15.0 ?y3)) (* 81.0 ?y2))))
 (let (($x7529 (= (+ (+ (* 2.0 ?y3) (* (- 5.0) ?y2)) (* 27.0 (rval2 ?y1_st))) 0.0)))
 (let (($x9245 (or (or $x7529 (> (+ (+ ?x2212 (* (- 82.0) (rval2 ?y1_st))) ?x5276) ?x66)) $x1948)))
 (let ((?x10639 (* 77.0 x1)))
 (let ((?x10469 (+ (+ (+ (* 95.0 ?y4) (* 71.0 ?y3)) (* 69.0 (rval2 ?y1_st))) ?x10639)))
 (let ((?x7314 (- 54.0)))
 (let ((?x10513 (- 11.0)))
 (let ((?x13135 (* ?x10513 x1)))
 (let ((?x5260 (+ (+ (+ (* (- 32.0) ?y4) (* ?x10513 ?y3)) (* 3.0 (rval2 ?y1_st))) ?x13135)))
 (let ((?x112 (- 58.0)))
 (let ((?x7533 (- 94.0)))
 (let ((?x8363 (* ?x7533 x1)))
 (let ((?x8013 (+ (+ (* (- 15.0) ?y4) (* (- 19.0) ?y3)) (* 62.0 ?y2))))
 (let ((?x13129 (- 91.0)))
 (let ((?x10971 (* 98.0 ?y4)))
 (let ((?x9168 (+ ?x10971 (* (- 3.0) ?y3))))
 (let (($x7847 (or (<= (+ ?x9168 (* (- 77.0) (rval2 ?y1_st))) ?x13129) (= (+ (+ ?x8013 (* 96.0 (rval2 ?y1_st))) ?x8363) ?x112))))
 (or (or $x7847 (or (not (= ?x5260 ?x7314)) (> ?x10469 0.0))) $x9245))))))))))))))))))))))) :qid k!18))
  :qid k!18))
  :qid k!18))
 ))
 (let (($x8687 (forall ((?y3 Real) )(! (let (($x9265 (< (+ (+ (* 88.0 ?y3) (* 75.0 (rval2 ?y1_st))) (* (- 5.0) x1)) 67.0)))
 (let (($x9709 (or (= (+ (* (- 100.0) (rval2 ?y1_st)) (* (- 19.0) x1)) (- 12.0)) $x9265)))
 (let (($x8056 (exists ((?y4 Real) )(! (let ((?x4389 (- 2.0)))
 (< (+ (+ (* (- 76.0) ?y3) (* 22.0 (rval2 ?y1_st))) (* 19.0 x1)) ?x4389)) :qid k!18))
 ))
 (let (($x8936 (forall ((?y4 Real) )(! (let ((?x6555 (* (- 59.0) x1)))
 (let (($x10330 (<= (+ (+ (* (- 94.0) ?y3) (* 29.0 (rval2 ?y1_st))) ?x6555) 57.0)))
 (let (($x11041 (< (+ (* (- 92.0) ?y3) (* 2.0 x1)) 4.0)))
 (or $x11041 $x10330)))) :qid k!18))
 ))
 (and $x8936 (and $x8056 $x9709)))))) :qid k!18))
 ))
 (let (($x610 (exists ((?y2 Real) )(! (exists ((?y3 Real) )(! (let ((?x11001 (* (- 46.0) x1)))
 (let (($x8321 (>= (+ (+ (* 58.0 ?y2) (* (- 41.0) (rval2 ?y1_st))) ?x11001) 7.0)))
 (let (($x5396 (= (+ (+ (* (- 67.0) ?y2) (* 84.0 (rval2 ?y1_st))) (* 64.0 x1)) 3.0)))
 (let (($x9136 (exists ((?y4 Real) )(! (let ((?x7005 (* 76.0 x1)))
 (let ((?x5713 (+ (+ (+ (* 26.0 ?y3) (* (- 90.0) ?y2)) (* 56.0 (rval2 ?y1_st))) ?x7005)))
 (not (= ?x5713 93.0)))) :qid k!18))
 ))
 (let (($x9464 (exists ((?y4 Real) )(! (let ((?x3083 (- 80.0)))
 (< (+ (* 53.0 ?y4) (* (- 71.0) (rval2 ?y1_st))) ?x3083)) :qid k!18))
 ))
 (let (($x4119 (exists ((?y4 Real) )(! (let ((?x721 (- 62.0)))
 (let ((?x11142 (+ (* (- 94.0) ?y4) (* 44.0 ?y2))))
 (>= (+ ?x11142 (* (- 83.0) (rval2 ?y1_st))) ?x721))) :qid k!18))
 ))
 (or (and $x4119 $x9464) (and $x9136 (and (not $x5396) $x8321))))))))) :qid k!18))
  :qid k!18))
 ))
 (let (($x5814 (not (= ?y1_st (RMk1 val!116)))))
 (and $x5814 (and (or $x610 $x8687) $x7255)))))))
 )
(check-sat)
